0 45 
1 44 
2 43 
3 42 
4 45 
5 44 
6 41 
7 40 
8 38 
9 38 
10 36 
11 34 
12 34 
13 31 
14 32 
15 32 
16 32 
17 31 
18 29 
19 28 
20 27 
21 26 
22 24 
23 25 
24 23 
25 21 
26 20 
27 20 
28 18 
29 16 
30 14 
31 14 
32 12 
33 12 
34 12 
35 10 
36 12 
37 12 
38 11 
39 8 
40 7 
41 6 
42 4 
43 2 
44 3 
45 2 
46 1 
47 0 
48 1 
49 2 
50 0 
51 0 
52 0 
53 0 
54 0 
55 0 
56 0 

